c n orig vars 66
p cnf 68 146
1 2 -67 0
3 4 -67 0
5 6 -67 0
7 8 -67 0
9 10 -67 0
11 12 -67 0
13 14 -67 0
15 16 -67 0
17 18 -67 0
19 20 -67 0
21 22 -67 0
23 24 -67 0
25 32 39 46 53 60 -68 0
26 33 40 47 54 61 -68 0
27 34 41 48 55 62 -68 0
28 35 42 49 56 63 -68 0
29 36 43 50 57 64 -68 0
30 37 44 51 58 65 -68 0
31 38 45 52 59 66 -68 0
-25 -26 -68 0
-25 -27 -68 0
-25 -28 -68 0
-25 -29 -68 0
-25 -30 -68 0
-25 -31 -68 0
-26 -27 -68 0
-26 -28 -68 0
-26 -29 -68 0
-26 -30 -68 0
-26 -31 -68 0
-27 -28 -68 0
-27 -29 -68 0
-27 -30 -68 0
-27 -31 -68 0
-28 -29 -68 0
-28 -30 -68 0
-28 -31 -68 0
-29 -30 -68 0
-29 -31 -68 0
-30 -31 -68 0
-32 -33 -68 0
-32 -34 -68 0
-32 -35 -68 0
-32 -36 -68 0
-32 -37 -68 0
-32 -38 -68 0
-33 -34 -68 0
-33 -35 -68 0
-33 -36 -68 0
-33 -37 -68 0
-33 -38 -68 0
-34 -35 -68 0
-34 -36 -68 0
-34 -37 -68 0
-34 -38 -68 0
-35 -36 -68 0
-35 -37 -68 0
-35 -38 -68 0
-36 -37 -68 0
-36 -38 -68 0
-37 -38 -68 0
-39 -40 -68 0
-39 -41 -68 0
-39 -42 -68 0
-39 -43 -68 0
-39 -44 -68 0
-39 -45 -68 0
-40 -41 -68 0
-40 -42 -68 0
-40 -43 -68 0
-40 -44 -68 0
-40 -45 -68 0
-41 -42 -68 0
-41 -43 -68 0
-41 -44 -68 0
-41 -45 -68 0
-42 -43 -68 0
-42 -44 -68 0
-42 -45 -68 0
-43 -44 -68 0
-43 -45 -68 0
-44 -45 -68 0
-46 -47 -68 0
-46 -48 -68 0
-46 -49 -68 0
-46 -50 -68 0
-46 -51 -68 0
-46 -52 -68 0
-47 -48 -68 0
-47 -49 -68 0
-47 -50 -68 0
-47 -51 -68 0
-47 -52 -68 0
-48 -49 -68 0
-48 -50 -68 0
-48 -51 -68 0
-48 -52 -68 0
-49 -50 -68 0
-49 -51 -68 0
-49 -52 -68 0
-50 -51 -68 0
-50 -52 -68 0
-51 -52 -68 0
-53 -54 -68 0
-53 -55 -68 0
-53 -56 -68 0
-53 -57 -68 0
-53 -58 -68 0
-53 -59 -68 0
-54 -55 -68 0
-54 -56 -68 0
-54 -57 -68 0
-54 -58 -68 0
-54 -59 -68 0
-55 -56 -68 0
-55 -57 -68 0
-55 -58 -68 0
-55 -59 -68 0
-56 -57 -68 0
-56 -58 -68 0
-56 -59 -68 0
-57 -58 -68 0
-57 -59 -68 0
-58 -59 -68 0
-60 -61 -68 0
-60 -62 -68 0
-60 -63 -68 0
-60 -64 -68 0
-60 -65 -68 0
-60 -66 -68 0
-61 -62 -68 0
-61 -63 -68 0
-61 -64 -68 0
-61 -65 -68 0
-61 -66 -68 0
-62 -63 -68 0
-62 -64 -68 0
-62 -65 -68 0
-62 -66 -68 0
-63 -64 -68 0
-63 -65 -68 0
-63 -66 -68 0
-64 -65 -68 0
-64 -66 -68 0
-65 -66 -68 0
67 68 0
